%oldchk=test001
%chk=test002
#p uhf/sto-3g guess=(read,permute,only,save) output=mat test

Test001 - H2 at long distance with broken-symmetry result (1.5 A).

0 1
 H                  0.00000000    0.00000000    0.75000005
 H                  0.00000000    0.00000000   -0.75000005

2,1

1-2

